p wcnf 150 1021 169
35 1 0
40 2 0
27 3 0
23 4 0
43 5 0
169 -1 -14 15 0
169 -1 -15 16 0
169 -1 -16 17 0
169 -1 -17 18 0
169 -1 -18 19 0
169 -1 -19 20 0
169 -1 -20 21 0
169 -1 -21 22 0
169 -1 -22 23 0
169 -1 -24 25 0
169 -1 -25 26 0
169 -1 -26 27 0
169 -1 -27 28 0
169 -1 -28 29 0
169 -1 -29 30 0
169 -1 -30 31 0
169 -1 -31 32 0
169 -1 -32 33 0
169 -2 -42 43 0
169 -2 -43 44 0
169 -2 -44 45 0
169 -2 -45 46 0
169 -2 -46 47 0
169 -2 -47 48 0
169 -2 -48 49 0
169 -2 -49 50 0
169 -2 -50 51 0
169 -2 -52 53 0
169 -2 -53 54 0
169 -2 -54 55 0
169 -2 -55 56 0
169 -2 -56 57 0
169 -2 -57 58 0
169 -2 -58 59 0
169 -2 -59 60 0
169 -2 -60 61 0
169 -3 -70 71 0
169 -3 -71 72 0
169 -3 -72 73 0
169 -3 -73 74 0
169 -3 -74 75 0
169 -3 -75 76 0
169 -3 -76 77 0
169 -3 -77 78 0
169 -3 -78 79 0
169 -3 -80 81 0
169 -3 -81 82 0
169 -3 -82 83 0
169 -3 -83 84 0
169 -3 -84 85 0
169 -3 -85 86 0
169 -3 -86 87 0
169 -3 -87 88 0
169 -3 -88 89 0
169 -4 -98 99 0
169 -4 -99 100 0
169 -4 -100 101 0
169 -4 -101 102 0
169 -4 -102 103 0
169 -4 -103 104 0
169 -4 -104 105 0
169 -4 -105 106 0
169 -4 -106 107 0
169 -4 -108 109 0
169 -4 -109 110 0
169 -4 -110 111 0
169 -4 -111 112 0
169 -4 -112 113 0
169 -4 -113 114 0
169 -4 -114 115 0
169 -4 -115 116 0
169 -4 -116 117 0
169 -5 -126 127 0
169 -5 -127 128 0
169 -5 -128 129 0
169 -5 -129 130 0
169 -5 -130 131 0
169 -5 -131 132 0
169 -5 -132 133 0
169 -5 -133 134 0
169 -5 -134 135 0
169 -5 -136 137 0
169 -5 -137 138 0
169 -5 -138 139 0
169 -5 -139 140 0
169 -5 -140 141 0
169 -5 -141 142 0
169 -5 -142 143 0
169 -5 -143 144 0
169 -5 -144 145 0
169 -1 -2 6 34 7 35 146 0
169 -1 -2 6 34 7 35 147 0
169 -1 -2 146 -6 -42 0
169 -1 -2 147 -34 -14 0
169 -1 -2 147 -34 -15 0
169 -1 -2 146 -7 -52 0
169 -1 -2 146 -7 -53 0
169 -1 -2 146 -7 -54 0
169 -1 -2 147 -35 -24 0
169 -1 -2 147 -35 -25 0
169 -1 -2 147 -35 -26 0
169 -1 -2 147 -35 -27 0
169 -1 -2 147 -35 -28 0
169 -1 -2 147 -35 -29 0
169 -1 -2 147 -35 -30 0
169 -1 -2 147 -35 -31 0
169 -1 -2 146 -6 14 -43 0
169 -1 -2 146 -6 15 -44 0
169 -1 -2 146 -6 16 -45 0
169 -1 -2 146 -6 17 -46 0
169 -1 -2 146 -6 18 -47 0
169 -1 -2 146 -6 19 -48 0
169 -1 -2 146 -6 20 -49 0
169 -1 -2 146 -6 21 -50 0
169 -1 -2 146 -6 22 -51 0
169 -1 -2 147 -34 42 -16 0
169 -1 -2 147 -34 43 -17 0
169 -1 -2 147 -34 44 -18 0
169 -1 -2 147 -34 45 -19 0
169 -1 -2 147 -34 46 -20 0
169 -1 -2 147 -34 47 -21 0
169 -1 -2 147 -34 48 -22 0
169 -1 -2 147 -34 49 -23 0
169 -1 -2 146 -7 24 -55 0
169 -1 -2 146 -7 25 -56 0
169 -1 -2 146 -7 26 -57 0
169 -1 -2 146 -7 27 -58 0
169 -1 -2 146 -7 28 -59 0
169 -1 -2 146 -7 29 -60 0
169 -1 -2 146 -7 30 -61 0
169 -1 -2 147 -35 52 -32 0
169 -1 -2 147 -35 53 -33 0
169 -1 -2 6 34 7 35 -146 0
169 -1 -2 6 34 7 35 -147 0
169 -1 -2 -146 -6 -42 0
169 -1 -2 -146 -6 -43 0
169 -1 -2 -146 -6 -44 0
169 -1 -2 -147 -34 -14 0
169 -1 -2 -147 -34 -15 0
169 -1 -2 -147 -34 -16 0
169 -1 -2 -147 -34 -17 0
169 -1 -2 -147 -34 -18 0
169 -1 -2 -147 -34 -19 0
169 -1 -2 -147 -34 -20 0
169 -1 -2 -147 -34 -21 0
169 -1 -2 -146 -7 -52 0
169 -1 -2 -147 -35 -24 0
169 -1 -2 -147 -35 -25 0
169 -1 -2 -146 -6 14 -45 0
169 -1 -2 -146 -6 15 -46 0
169 -1 -2 -146 -6 16 -47 0
169 -1 -2 -146 -6 17 -48 0
169 -1 -2 -146 -6 18 -49 0
169 -1 -2 -146 -6 19 -50 0
169 -1 -2 -146 -6 20 -51 0
169 -1 -2 -147 -34 42 -22 0
169 -1 -2 -147 -34 43 -23 0
169 -1 -2 -146 -7 24 -53 0
169 -1 -2 -146 -7 25 -54 0
169 -1 -2 -146 -7 26 -55 0
169 -1 -2 -146 -7 27 -56 0
169 -1 -2 -146 -7 28 -57 0
169 -1 -2 -146 -7 29 -58 0
169 -1 -2 -146 -7 30 -59 0
169 -1 -2 -146 -7 31 -60 0
169 -1 -2 -146 -7 32 -61 0
169 -1 -2 -147 -35 52 -26 0
169 -1 -2 -147 -35 53 -27 0
169 -1 -2 -147 -35 54 -28 0
169 -1 -2 -147 -35 55 -29 0
169 -1 -2 -147 -35 56 -30 0
169 -1 -2 -147 -35 57 -31 0
169 -1 -2 -147 -35 58 -32 0
169 -1 -2 -147 -35 59 -33 0
169 -1 -3 8 62 9 63 146 0
169 -1 -3 8 62 9 63 148 0
169 -1 -3 146 -8 -70 0
169 -1 -3 148 -62 -14 0
169 -1 -3 148 -62 -15 0
169 -1 -3 148 -62 -16 0
169 -1 -3 146 -9 -80 0
169 -1 -3 146 -9 -81 0
169 -1 -3 146 -9 -82 0
169 -1 -3 148 -63 -24 0
169 -1 -3 148 -63 -25 0
169 -1 -3 148 -63 -26 0
169 -1 -3 148 -63 -27 0
169 -1 -3 148 -63 -28 0
169 -1 -3 148 -63 -29 0
169 -1 -3 148 -63 -30 0
169 -1 -3 148 -63 -31 0
169 -1 -3 148 -63 -32 0
169 -1 -3 148 -63 -33 0
169 -1 -3 146 -8 14 -71 0
169 -1 -3 146 -8 15 -72 0
169 -1 -3 146 -8 16 -73 0
169 -1 -3 146 -8 17 -74 0
169 -1 -3 146 -8 18 -75 0
169 -1 -3 146 -8 19 -76 0
169 -1 -3 146 -8 20 -77 0
169 -1 -3 146 -8 21 -78 0
169 -1 -3 146 -8 22 -79 0
169 -1 -3 148 -62 70 -17 0
169 -1 -3 148 -62 71 -18 0
169 -1 -3 148 -62 72 -19 0
169 -1 -3 148 -62 73 -20 0
169 -1 -3 148 -62 74 -21 0
169 -1 -3 148 -62 75 -22 0
169 -1 -3 148 -62 76 -23 0
169 -1 -3 146 -9 24 -83 0
169 -1 -3 146 -9 25 -84 0
169 -1 -3 146 -9 26 -85 0
169 -1 -3 146 -9 27 -86 0
169 -1 -3 146 -9 28 -87 0
169 -1 -3 146 -9 29 -88 0
169 -1 -3 146 -9 30 -89 0
169 -1 -3 8 62 9 63 -146 0
169 -1 -3 8 62 9 63 -148 0
169 -1 -3 -146 -8 -70 0
169 -1 -3 -146 -8 -71 0
169 -1 -3 -146 -8 -72 0
169 -1 -3 -148 -62 -14 0
169 -1 -3 -148 -62 -15 0
169 -1 -3 -148 -62 -16 0
169 -1 -3 -148 -62 -17 0
169 -1 -3 -148 -62 -18 0
169 -1 -3 -148 -62 -19 0
169 -1 -3 -148 -62 -20 0
169 -1 -3 -148 -62 -21 0
169 -1 -3 -148 -62 -22 0
169 -1 -3 -148 -62 -23 0
169 -1 -3 -146 -9 -80 0
169 -1 -3 -148 -63 -24 0
169 -1 -3 -148 -63 -25 0
169 -1 -3 -148 -63 -26 0
169 -1 -3 -146 -8 14 -73 0
169 -1 -3 -146 -8 15 -74 0
169 -1 -3 -146 -8 16 -75 0
169 -1 -3 -146 -8 17 -76 0
169 -1 -3 -146 -8 18 -77 0
169 -1 -3 -146 -8 19 -78 0
169 -1 -3 -146 -8 20 -79 0
169 -1 -3 -146 -9 24 -81 0
169 -1 -3 -146 -9 25 -82 0
169 -1 -3 -146 -9 26 -83 0
169 -1 -3 -146 -9 27 -84 0
169 -1 -3 -146 -9 28 -85 0
169 -1 -3 -146 -9 29 -86 0
169 -1 -3 -146 -9 30 -87 0
169 -1 -3 -146 -9 31 -88 0
169 -1 -3 -146 -9 32 -89 0
169 -1 -3 -148 -63 80 -27 0
169 -1 -3 -148 -63 81 -28 0
169 -1 -3 -148 -63 82 -29 0
169 -1 -3 -148 -63 83 -30 0
169 -1 -3 -148 -63 84 -31 0
169 -1 -3 -148 -63 85 -32 0
169 -1 -3 -148 -63 86 -33 0
169 -1 -4 10 90 11 91 146 0
169 -1 -4 10 90 11 91 149 0
169 -1 -4 146 -10 -98 0
169 -1 -4 149 -90 -14 0
169 -1 -4 149 -90 -15 0
169 -1 -4 149 -90 -16 0
169 -1 -4 149 -90 -17 0
169 -1 -4 146 -11 -108 0
169 -1 -4 146 -11 -109 0
169 -1 -4 146 -11 -110 0
169 -1 -4 149 -91 -24 0
169 -1 -4 149 -91 -25 0
169 -1 -4 149 -91 -26 0
169 -1 -4 149 -91 -27 0
169 -1 -4 149 -91 -28 0
169 -1 -4 146 -10 14 -99 0
169 -1 -4 146 -10 15 -100 0
169 -1 -4 146 -10 16 -101 0
169 -1 -4 146 -10 17 -102 0
169 -1 -4 146 -10 18 -103 0
169 -1 -4 146 -10 19 -104 0
169 -1 -4 146 -10 20 -105 0
169 -1 -4 146 -10 21 -106 0
169 -1 -4 146 -10 22 -107 0
169 -1 -4 149 -90 98 -18 0
169 -1 -4 149 -90 99 -19 0
169 -1 -4 149 -90 100 -20 0
169 -1 -4 149 -90 101 -21 0
169 -1 -4 149 -90 102 -22 0
169 -1 -4 149 -90 103 -23 0
169 -1 -4 146 -11 24 -111 0
169 -1 -4 146 -11 25 -112 0
169 -1 -4 146 -11 26 -113 0
169 -1 -4 146 -11 27 -114 0
169 -1 -4 146 -11 28 -115 0
169 -1 -4 146 -11 29 -116 0
169 -1 -4 146 -11 30 -117 0
169 -1 -4 149 -91 108 -29 0
169 -1 -4 149 -91 109 -30 0
169 -1 -4 149 -91 110 -31 0
169 -1 -4 149 -91 111 -32 0
169 -1 -4 149 -91 112 -33 0
169 -1 -4 10 90 11 91 -146 0
169 -1 -4 10 90 11 91 -149 0
169 -1 -4 -146 -10 -98 0
169 -1 -4 -146 -10 -99 0
169 -1 -4 -146 -10 -100 0
169 -1 -4 -149 -90 -14 0
169 -1 -4 -149 -90 -15 0
169 -1 -4 -149 -90 -16 0
169 -1 -4 -149 -90 -17 0
169 -1 -4 -149 -90 -18 0
169 -1 -4 -146 -11 -108 0
169 -1 -4 -149 -91 -24 0
169 -1 -4 -149 -91 -25 0
169 -1 -4 -149 -91 -26 0
169 -1 -4 -149 -91 -27 0
169 -1 -4 -146 -10 14 -101 0
169 -1 -4 -146 -10 15 -102 0
169 -1 -4 -146 -10 16 -103 0
169 -1 -4 -146 -10 17 -104 0
169 -1 -4 -146 -10 18 -105 0
169 -1 -4 -146 -10 19 -106 0
169 -1 -4 -146 -10 20 -107 0
169 -1 -4 -149 -90 98 -19 0
169 -1 -4 -149 -90 99 -20 0
169 -1 -4 -149 -90 100 -21 0
169 -1 -4 -149 -90 101 -22 0
169 -1 -4 -149 -90 102 -23 0
169 -1 -4 -146 -11 24 -109 0
169 -1 -4 -146 -11 25 -110 0
169 -1 -4 -146 -11 26 -111 0
169 -1 -4 -146 -11 27 -112 0
169 -1 -4 -146 -11 28 -113 0
169 -1 -4 -146 -11 29 -114 0
169 -1 -4 -146 -11 30 -115 0
169 -1 -4 -146 -11 31 -116 0
169 -1 -4 -146 -11 32 -117 0
169 -1 -4 -149 -91 108 -28 0
169 -1 -4 -149 -91 109 -29 0
169 -1 -4 -149 -91 110 -30 0
169 -1 -4 -149 -91 111 -31 0
169 -1 -4 -149 -91 112 -32 0
169 -1 -4 -149 -91 113 -33 0
169 -1 -5 12 118 13 119 146 0
169 -1 -5 12 118 13 119 150 0
169 -1 -5 146 -12 -126 0
169 -1 -5 150 -118 -14 0
169 -1 -5 150 -118 -15 0
169 -1 -5 150 -118 -16 0
169 -1 -5 150 -118 -17 0
169 -1 -5 150 -118 -18 0
169 -1 -5 146 -13 -136 0
169 -1 -5 146 -13 -137 0
169 -1 -5 146 -13 -138 0
169 -1 -5 150 -119 -24 0
169 -1 -5 150 -119 -25 0
169 -1 -5 146 -12 14 -127 0
169 -1 -5 146 -12 15 -128 0
169 -1 -5 146 -12 16 -129 0
169 -1 -5 146 -12 17 -130 0
169 -1 -5 146 -12 18 -131 0
169 -1 -5 146 -12 19 -132 0
169 -1 -5 146 -12 20 -133 0
169 -1 -5 146 -12 21 -134 0
169 -1 -5 146 -12 22 -135 0
169 -1 -5 150 -118 126 -19 0
169 -1 -5 150 -118 127 -20 0
169 -1 -5 150 -118 128 -21 0
169 -1 -5 150 -118 129 -22 0
169 -1 -5 150 -118 130 -23 0
169 -1 -5 146 -13 24 -139 0
169 -1 -5 146 -13 25 -140 0
169 -1 -5 146 -13 26 -141 0
169 -1 -5 146 -13 27 -142 0
169 -1 -5 146 -13 28 -143 0
169 -1 -5 146 -13 29 -144 0
169 -1 -5 146 -13 30 -145 0
169 -1 -5 150 -119 136 -26 0
169 -1 -5 150 -119 137 -27 0
169 -1 -5 150 -119 138 -28 0
169 -1 -5 150 -119 139 -29 0
169 -1 -5 150 -119 140 -30 0
169 -1 -5 150 -119 141 -31 0
169 -1 -5 150 -119 142 -32 0
169 -1 -5 150 -119 143 -33 0
169 -1 -5 12 118 13 119 -146 0
169 -1 -5 12 118 13 119 -150 0
169 -1 -5 -146 -12 -126 0
169 -1 -5 -146 -12 -127 0
169 -1 -5 -146 -12 -128 0
169 -1 -5 -150 -118 -14 0
169 -1 -5 -150 -118 -15 0
169 -1 -5 -146 -13 -136 0
169 -1 -5 -150 -119 -24 0
169 -1 -5 -150 -119 -25 0
169 -1 -5 -150 -119 -26 0
169 -1 -5 -150 -119 -27 0
169 -1 -5 -150 -119 -28 0
169 -1 -5 -146 -12 14 -129 0
169 -1 -5 -146 -12 15 -130 0
169 -1 -5 -146 -12 16 -131 0
169 -1 -5 -146 -12 17 -132 0
169 -1 -5 -146 -12 18 -133 0
169 -1 -5 -146 -12 19 -134 0
169 -1 -5 -146 -12 20 -135 0
169 -1 -5 -150 -118 126 -16 0
169 -1 -5 -150 -118 127 -17 0
169 -1 -5 -150 -118 128 -18 0
169 -1 -5 -150 -118 129 -19 0
169 -1 -5 -150 -118 130 -20 0
169 -1 -5 -150 -118 131 -21 0
169 -1 -5 -150 -118 132 -22 0
169 -1 -5 -150 -118 133 -23 0
169 -1 -5 -146 -13 24 -137 0
169 -1 -5 -146 -13 25 -138 0
169 -1 -5 -146 -13 26 -139 0
169 -1 -5 -146 -13 27 -140 0
169 -1 -5 -146 -13 28 -141 0
169 -1 -5 -146 -13 29 -142 0
169 -1 -5 -146 -13 30 -143 0
169 -1 -5 -146 -13 31 -144 0
169 -1 -5 -146 -13 32 -145 0
169 -1 -5 -150 -119 136 -29 0
169 -1 -5 -150 -119 137 -30 0
169 -1 -5 -150 -119 138 -31 0
169 -1 -5 -150 -119 139 -32 0
169 -1 -5 -150 -119 140 -33 0
169 -2 -3 36 64 37 65 147 0
169 -2 -3 36 64 37 65 148 0
169 -2 -3 147 -36 -70 0
169 -2 -3 147 -36 -71 0
169 -2 -3 148 -64 -42 0
169 -2 -3 148 -64 -43 0
169 -2 -3 148 -64 -44 0
169 -2 -3 147 -37 -80 0
169 -2 -3 147 -37 -81 0
169 -2 -3 147 -37 -82 0
169 -2 -3 147 -37 -83 0
169 -2 -3 147 -37 -84 0
169 -2 -3 147 -37 -85 0
169 -2 -3 147 -37 -86 0
169 -2 -3 147 -37 -87 0
169 -2 -3 148 -65 -52 0
169 -2 -3 148 -65 -53 0
169 -2 -3 148 -65 -54 0
169 -2 -3 148 -65 -55 0
169 -2 -3 148 -65 -56 0
169 -2 -3 148 -65 -57 0
169 -2 -3 148 -65 -58 0
169 -2 -3 148 -65 -59 0
169 -2 -3 148 -65 -60 0
169 -2 -3 148 -65 -61 0
169 -2 -3 147 -36 42 -72 0
169 -2 -3 147 -36 43 -73 0
169 -2 -3 147 -36 44 -74 0
169 -2 -3 147 -36 45 -75 0
169 -2 -3 147 -36 46 -76 0
169 -2 -3 147 -36 47 -77 0
169 -2 -3 147 -36 48 -78 0
169 -2 -3 147 -36 49 -79 0
169 -2 -3 148 -64 70 -45 0
169 -2 -3 148 -64 71 -46 0
169 -2 -3 148 -64 72 -47 0
169 -2 -3 148 -64 73 -48 0
169 -2 -3 148 -64 74 -49 0
169 -2 -3 148 -64 75 -50 0
169 -2 -3 148 -64 76 -51 0
169 -2 -3 147 -37 52 -88 0
169 -2 -3 147 -37 53 -89 0
169 -2 -3 36 64 37 65 -147 0
169 -2 -3 36 64 37 65 -148 0
169 -2 -3 -147 -36 -70 0
169 -2 -3 -147 -36 -71 0
169 -2 -3 -147 -36 -72 0
169 -2 -3 -147 -36 -73 0
169 -2 -3 -147 -36 -74 0
169 -2 -3 -147 -36 -75 0
169 -2 -3 -147 -36 -76 0
169 -2 -3 -147 -36 -77 0
169 -2 -3 -148 -64 -42 0
169 -2 -3 -148 -64 -43 0
169 -2 -3 -148 -64 -44 0
169 -2 -3 -148 -64 -45 0
169 -2 -3 -148 -64 -46 0
169 -2 -3 -148 -64 -47 0
169 -2 -3 -148 -64 -48 0
169 -2 -3 -148 -64 -49 0
169 -2 -3 -148 -64 -50 0
169 -2 -3 -148 -64 -51 0
169 -2 -3 -147 -37 -80 0
169 -2 -3 -147 -37 -81 0
169 -2 -3 -148 -65 -52 0
169 -2 -3 -148 -65 -53 0
169 -2 -3 -148 -65 -54 0
169 -2 -3 -147 -36 42 -78 0
169 -2 -3 -147 -36 43 -79 0
169 -2 -3 -147 -37 52 -82 0
169 -2 -3 -147 -37 53 -83 0
169 -2 -3 -147 -37 54 -84 0
169 -2 -3 -147 -37 55 -85 0
169 -2 -3 -147 -37 56 -86 0
169 -2 -3 -147 -37 57 -87 0
169 -2 -3 -147 -37 58 -88 0
169 -2 -3 -147 -37 59 -89 0
169 -2 -3 -148 -65 80 -55 0
169 -2 -3 -148 -65 81 -56 0
169 -2 -3 -148 -65 82 -57 0
169 -2 -3 -148 -65 83 -58 0
169 -2 -3 -148 -65 84 -59 0
169 -2 -3 -148 -65 85 -60 0
169 -2 -3 -148 -65 86 -61 0
169 -2 -4 38 92 39 93 147 0
169 -2 -4 38 92 39 93 149 0
169 -2 -4 147 -38 -98 0
169 -2 -4 147 -38 -99 0
169 -2 -4 149 -92 -42 0
169 -2 -4 149 -92 -43 0
169 -2 -4 149 -92 -44 0
169 -2 -4 149 -92 -45 0
169 -2 -4 147 -39 -108 0
169 -2 -4 147 -39 -109 0
169 -2 -4 147 -39 -110 0
169 -2 -4 147 -39 -111 0
169 -2 -4 147 -39 -112 0
169 -2 -4 147 -39 -113 0
169 -2 -4 147 -39 -114 0
169 -2 -4 147 -39 -115 0
169 -2 -4 149 -93 -52 0
169 -2 -4 149 -93 -53 0
169 -2 -4 149 -93 -54 0
169 -2 -4 149 -93 -55 0
169 -2 -4 149 -93 -56 0
169 -2 -4 147 -38 42 -100 0
169 -2 -4 147 -38 43 -101 0
169 -2 -4 147 -38 44 -102 0
169 -2 -4 147 -38 45 -103 0
169 -2 -4 147 -38 46 -104 0
169 -2 -4 147 -38 47 -105 0
169 -2 -4 147 -38 48 -106 0
169 -2 -4 147 -38 49 -107 0
169 -2 -4 149 -92 98 -46 0
169 -2 -4 149 -92 99 -47 0
169 -2 -4 149 -92 100 -48 0
169 -2 -4 149 -92 101 -49 0
169 -2 -4 149 -92 102 -50 0
169 -2 -4 149 -92 103 -51 0
169 -2 -4 147 -39 52 -116 0
169 -2 -4 147 -39 53 -117 0
169 -2 -4 149 -93 108 -57 0
169 -2 -4 149 -93 109 -58 0
169 -2 -4 149 -93 110 -59 0
169 -2 -4 149 -93 111 -60 0
169 -2 -4 149 -93 112 -61 0
169 -2 -4 38 92 39 93 -147 0
169 -2 -4 38 92 39 93 -149 0
169 -2 -4 -147 -38 -98 0
169 -2 -4 -147 -38 -99 0
169 -2 -4 -147 -38 -100 0
169 -2 -4 -147 -38 -101 0
169 -2 -4 -147 -38 -102 0
169 -2 -4 -147 -38 -103 0
169 -2 -4 -147 -38 -104 0
169 -2 -4 -147 -38 -105 0
169 -2 -4 -149 -92 -42 0
169 -2 -4 -149 -92 -43 0
169 -2 -4 -149 -92 -44 0
169 -2 -4 -149 -92 -45 0
169 -2 -4 -149 -92 -46 0
169 -2 -4 -147 -39 -108 0
169 -2 -4 -147 -39 -109 0
169 -2 -4 -149 -93 -52 0
169 -2 -4 -149 -93 -53 0
169 -2 -4 -149 -93 -54 0
169 -2 -4 -149 -93 -55 0
169 -2 -4 -147 -38 42 -106 0
169 -2 -4 -147 -38 43 -107 0
169 -2 -4 -149 -92 98 -47 0
169 -2 -4 -149 -92 99 -48 0
169 -2 -4 -149 -92 100 -49 0
169 -2 -4 -149 -92 101 -50 0
169 -2 -4 -149 -92 102 -51 0
169 -2 -4 -147 -39 52 -110 0
169 -2 -4 -147 -39 53 -111 0
169 -2 -4 -147 -39 54 -112 0
169 -2 -4 -147 -39 55 -113 0
169 -2 -4 -147 -39 56 -114 0
169 -2 -4 -147 -39 57 -115 0
169 -2 -4 -147 -39 58 -116 0
169 -2 -4 -147 -39 59 -117 0
169 -2 -4 -149 -93 108 -56 0
169 -2 -4 -149 -93 109 -57 0
169 -2 -4 -149 -93 110 -58 0
169 -2 -4 -149 -93 111 -59 0
169 -2 -4 -149 -93 112 -60 0
169 -2 -4 -149 -93 113 -61 0
169 -2 -5 40 120 41 121 147 0
169 -2 -5 40 120 41 121 150 0
169 -2 -5 147 -40 -126 0
169 -2 -5 147 -40 -127 0
169 -2 -5 150 -120 -42 0
169 -2 -5 150 -120 -43 0
169 -2 -5 150 -120 -44 0
169 -2 -5 150 -120 -45 0
169 -2 -5 150 -120 -46 0
169 -2 -5 147 -41 -136 0
169 -2 -5 147 -41 -137 0
169 -2 -5 147 -41 -138 0
169 -2 -5 147 -41 -139 0
169 -2 -5 147 -41 -140 0
169 -2 -5 147 -41 -141 0
169 -2 -5 147 -41 -142 0
169 -2 -5 147 -41 -143 0
169 -2 -5 150 -121 -52 0
169 -2 -5 150 -121 -53 0
169 -2 -5 147 -40 42 -128 0
169 -2 -5 147 -40 43 -129 0
169 -2 -5 147 -40 44 -130 0
169 -2 -5 147 -40 45 -131 0
169 -2 -5 147 -40 46 -132 0
169 -2 -5 147 -40 47 -133 0
169 -2 -5 147 -40 48 -134 0
169 -2 -5 147 -40 49 -135 0
169 -2 -5 150 -120 126 -47 0
169 -2 -5 150 -120 127 -48 0
169 -2 -5 150 -120 128 -49 0
169 -2 -5 150 -120 129 -50 0
169 -2 -5 150 -120 130 -51 0
169 -2 -5 147 -41 52 -144 0
169 -2 -5 147 -41 53 -145 0
169 -2 -5 150 -121 136 -54 0
169 -2 -5 150 -121 137 -55 0
169 -2 -5 150 -121 138 -56 0
169 -2 -5 150 -121 139 -57 0
169 -2 -5 150 -121 140 -58 0
169 -2 -5 150 -121 141 -59 0
169 -2 -5 150 -121 142 -60 0
169 -2 -5 150 -121 143 -61 0
169 -2 -5 40 120 41 121 -147 0
169 -2 -5 40 120 41 121 -150 0
169 -2 -5 -147 -40 -126 0
169 -2 -5 -147 -40 -127 0
169 -2 -5 -147 -40 -128 0
169 -2 -5 -147 -40 -129 0
169 -2 -5 -147 -40 -130 0
169 -2 -5 -147 -40 -131 0
169 -2 -5 -147 -40 -132 0
169 -2 -5 -147 -40 -133 0
169 -2 -5 -150 -120 -42 0
169 -2 -5 -150 -120 -43 0
169 -2 -5 -147 -41 -136 0
169 -2 -5 -147 -41 -137 0
169 -2 -5 -150 -121 -52 0
169 -2 -5 -150 -121 -53 0
169 -2 -5 -150 -121 -54 0
169 -2 -5 -150 -121 -55 0
169 -2 -5 -150 -121 -56 0
169 -2 -5 -147 -40 42 -134 0
169 -2 -5 -147 -40 43 -135 0
169 -2 -5 -150 -120 126 -44 0
169 -2 -5 -150 -120 127 -45 0
169 -2 -5 -150 -120 128 -46 0
169 -2 -5 -150 -120 129 -47 0
169 -2 -5 -150 -120 130 -48 0
169 -2 -5 -150 -120 131 -49 0
169 -2 -5 -150 -120 132 -50 0
169 -2 -5 -150 -120 133 -51 0
169 -2 -5 -147 -41 52 -138 0
169 -2 -5 -147 -41 53 -139 0
169 -2 -5 -147 -41 54 -140 0
169 -2 -5 -147 -41 55 -141 0
169 -2 -5 -147 -41 56 -142 0
169 -2 -5 -147 -41 57 -143 0
169 -2 -5 -147 -41 58 -144 0
169 -2 -5 -147 -41 59 -145 0
169 -2 -5 -150 -121 136 -57 0
169 -2 -5 -150 -121 137 -58 0
169 -2 -5 -150 -121 138 -59 0
169 -2 -5 -150 -121 139 -60 0
169 -2 -5 -150 -121 140 -61 0
169 -3 -4 66 94 67 95 148 0
169 -3 -4 66 94 67 95 149 0
169 -3 -4 148 -66 -98 0
169 -3 -4 148 -66 -99 0
169 -3 -4 148 -66 -100 0
169 -3 -4 149 -94 -70 0
169 -3 -4 149 -94 -71 0
169 -3 -4 149 -94 -72 0
169 -3 -4 149 -94 -73 0
169 -3 -4 148 -67 -108 0
169 -3 -4 148 -67 -109 0
169 -3 -4 148 -67 -110 0
169 -3 -4 148 -67 -111 0
169 -3 -4 148 -67 -112 0
169 -3 -4 148 -67 -113 0
169 -3 -4 148 -67 -114 0
169 -3 -4 148 -67 -115 0
169 -3 -4 148 -67 -116 0
169 -3 -4 148 -67 -117 0
169 -3 -4 149 -95 -80 0
169 -3 -4 149 -95 -81 0
169 -3 -4 149 -95 -82 0
169 -3 -4 149 -95 -83 0
169 -3 -4 149 -95 -84 0
169 -3 -4 148 -66 70 -101 0
169 -3 -4 148 -66 71 -102 0
169 -3 -4 148 -66 72 -103 0
169 -3 -4 148 -66 73 -104 0
169 -3 -4 148 -66 74 -105 0
169 -3 -4 148 -66 75 -106 0
169 -3 -4 148 -66 76 -107 0
169 -3 -4 149 -94 98 -74 0
169 -3 -4 149 -94 99 -75 0
169 -3 -4 149 -94 100 -76 0
169 -3 -4 149 -94 101 -77 0
169 -3 -4 149 -94 102 -78 0
169 -3 -4 149 -94 103 -79 0
169 -3 -4 149 -95 108 -85 0
169 -3 -4 149 -95 109 -86 0
169 -3 -4 149 -95 110 -87 0
169 -3 -4 149 -95 111 -88 0
169 -3 -4 149 -95 112 -89 0
169 -3 -4 66 94 67 95 -148 0
169 -3 -4 66 94 67 95 -149 0
169 -3 -4 -148 -66 -98 0
169 -3 -4 -148 -66 -99 0
169 -3 -4 -148 -66 -100 0
169 -3 -4 -148 -66 -101 0
169 -3 -4 -148 -66 -102 0
169 -3 -4 -148 -66 -103 0
169 -3 -4 -148 -66 -104 0
169 -3 -4 -148 -66 -105 0
169 -3 -4 -148 -66 -106 0
169 -3 -4 -148 -66 -107 0
169 -3 -4 -149 -94 -70 0
169 -3 -4 -149 -94 -71 0
169 -3 -4 -149 -94 -72 0
169 -3 -4 -149 -94 -73 0
169 -3 -4 -149 -94 -74 0
169 -3 -4 -148 -67 -108 0
169 -3 -4 -148 -67 -109 0
169 -3 -4 -148 -67 -110 0
169 -3 -4 -149 -95 -80 0
169 -3 -4 -149 -95 -81 0
169 -3 -4 -149 -95 -82 0
169 -3 -4 -149 -95 -83 0
169 -3 -4 -149 -94 98 -75 0
169 -3 -4 -149 -94 99 -76 0
169 -3 -4 -149 -94 100 -77 0
169 -3 -4 -149 -94 101 -78 0
169 -3 -4 -149 -94 102 -79 0
169 -3 -4 -148 -67 80 -111 0
169 -3 -4 -148 -67 81 -112 0
169 -3 -4 -148 -67 82 -113 0
169 -3 -4 -148 -67 83 -114 0
169 -3 -4 -148 -67 84 -115 0
169 -3 -4 -148 -67 85 -116 0
169 -3 -4 -148 -67 86 -117 0
169 -3 -4 -149 -95 108 -84 0
169 -3 -4 -149 -95 109 -85 0
169 -3 -4 -149 -95 110 -86 0
169 -3 -4 -149 -95 111 -87 0
169 -3 -4 -149 -95 112 -88 0
169 -3 -4 -149 -95 113 -89 0
169 -3 -5 68 122 69 123 148 0
169 -3 -5 68 122 69 123 150 0
169 -3 -5 148 -68 -126 0
169 -3 -5 148 -68 -127 0
169 -3 -5 148 -68 -128 0
169 -3 -5 150 -122 -70 0
169 -3 -5 150 -122 -71 0
169 -3 -5 150 -122 -72 0
169 -3 -5 150 -122 -73 0
169 -3 -5 150 -122 -74 0
169 -3 -5 148 -69 -136 0
169 -3 -5 148 -69 -137 0
169 -3 -5 148 -69 -138 0
169 -3 -5 148 -69 -139 0
169 -3 -5 148 -69 -140 0
169 -3 -5 148 -69 -141 0
169 -3 -5 148 -69 -142 0
169 -3 -5 148 -69 -143 0
169 -3 -5 148 -69 -144 0
169 -3 -5 148 -69 -145 0
169 -3 -5 150 -123 -80 0
169 -3 -5 150 -123 -81 0
169 -3 -5 148 -68 70 -129 0
169 -3 -5 148 -68 71 -130 0
169 -3 -5 148 -68 72 -131 0
169 -3 -5 148 -68 73 -132 0
169 -3 -5 148 -68 74 -133 0
169 -3 -5 148 -68 75 -134 0
169 -3 -5 148 -68 76 -135 0
169 -3 -5 150 -122 126 -75 0
169 -3 -5 150 -122 127 -76 0
169 -3 -5 150 -122 128 -77 0
169 -3 -5 150 -122 129 -78 0
169 -3 -5 150 -122 130 -79 0
169 -3 -5 150 -123 136 -82 0
169 -3 -5 150 -123 137 -83 0
169 -3 -5 150 -123 138 -84 0
169 -3 -5 150 -123 139 -85 0
169 -3 -5 150 -123 140 -86 0
169 -3 -5 150 -123 141 -87 0
169 -3 -5 150 -123 142 -88 0
169 -3 -5 150 -123 143 -89 0
169 -3 -5 68 122 69 123 -148 0
169 -3 -5 68 122 69 123 -150 0
169 -3 -5 -148 -68 -126 0
169 -3 -5 -148 -68 -127 0
169 -3 -5 -148 -68 -128 0
169 -3 -5 -148 -68 -129 0
169 -3 -5 -148 -68 -130 0
169 -3 -5 -148 -68 -131 0
169 -3 -5 -148 -68 -132 0
169 -3 -5 -148 -68 -133 0
169 -3 -5 -148 -68 -134 0
169 -3 -5 -148 -68 -135 0
169 -3 -5 -150 -122 -70 0
169 -3 -5 -150 -122 -71 0
169 -3 -5 -148 -69 -136 0
169 -3 -5 -148 -69 -137 0
169 -3 -5 -148 -69 -138 0
169 -3 -5 -150 -123 -80 0
169 -3 -5 -150 -123 -81 0
169 -3 -5 -150 -123 -82 0
169 -3 -5 -150 -123 -83 0
169 -3 -5 -150 -123 -84 0
169 -3 -5 -150 -122 126 -72 0
169 -3 -5 -150 -122 127 -73 0
169 -3 -5 -150 -122 128 -74 0
169 -3 -5 -150 -122 129 -75 0
169 -3 -5 -150 -122 130 -76 0
169 -3 -5 -150 -122 131 -77 0
169 -3 -5 -150 -122 132 -78 0
169 -3 -5 -150 -122 133 -79 0
169 -3 -5 -148 -69 80 -139 0
169 -3 -5 -148 -69 81 -140 0
169 -3 -5 -148 -69 82 -141 0
169 -3 -5 -148 -69 83 -142 0
169 -3 -5 -148 -69 84 -143 0
169 -3 -5 -148 -69 85 -144 0
169 -3 -5 -148 -69 86 -145 0
169 -3 -5 -150 -123 136 -85 0
169 -3 -5 -150 -123 137 -86 0
169 -3 -5 -150 -123 138 -87 0
169 -3 -5 -150 -123 139 -88 0
169 -3 -5 -150 -123 140 -89 0
169 -4 -5 96 124 97 125 149 0
169 -4 -5 96 124 97 125 150 0
169 -4 -5 149 -96 -126 0
169 -4 -5 149 -96 -127 0
169 -4 -5 149 -96 -128 0
169 -4 -5 149 -96 -129 0
169 -4 -5 150 -124 -98 0
169 -4 -5 150 -124 -99 0
169 -4 -5 150 -124 -100 0
169 -4 -5 150 -124 -101 0
169 -4 -5 150 -124 -102 0
169 -4 -5 149 -97 -136 0
169 -4 -5 149 -97 -137 0
169 -4 -5 149 -97 -138 0
169 -4 -5 149 -97 -139 0
169 -4 -5 149 -97 -140 0
169 -4 -5 150 -125 -108 0
169 -4 -5 150 -125 -109 0
169 -4 -5 149 -96 98 -130 0
169 -4 -5 149 -96 99 -131 0
169 -4 -5 149 -96 100 -132 0
169 -4 -5 149 -96 101 -133 0
169 -4 -5 149 -96 102 -134 0
169 -4 -5 149 -96 103 -135 0
169 -4 -5 150 -124 126 -103 0
169 -4 -5 150 -124 127 -104 0
169 -4 -5 150 -124 128 -105 0
169 -4 -5 150 -124 129 -106 0
169 -4 -5 150 -124 130 -107 0
169 -4 -5 149 -97 108 -141 0
169 -4 -5 149 -97 109 -142 0
169 -4 -5 149 -97 110 -143 0
169 -4 -5 149 -97 111 -144 0
169 -4 -5 149 -97 112 -145 0
169 -4 -5 150 -125 136 -110 0
169 -4 -5 150 -125 137 -111 0
169 -4 -5 150 -125 138 -112 0
169 -4 -5 150 -125 139 -113 0
169 -4 -5 150 -125 140 -114 0
169 -4 -5 150 -125 141 -115 0
169 -4 -5 150 -125 142 -116 0
169 -4 -5 150 -125 143 -117 0
169 -4 -5 96 124 97 125 -149 0
169 -4 -5 96 124 97 125 -150 0
169 -4 -5 -149 -96 -126 0
169 -4 -5 -149 -96 -127 0
169 -4 -5 -149 -96 -128 0
169 -4 -5 -149 -96 -129 0
169 -4 -5 -149 -96 -130 0
169 -4 -5 -150 -124 -98 0
169 -4 -5 -150 -124 -99 0
169 -4 -5 -149 -97 -136 0
169 -4 -5 -149 -97 -137 0
169 -4 -5 -149 -97 -138 0
169 -4 -5 -149 -97 -139 0
169 -4 -5 -150 -125 -108 0
169 -4 -5 -150 -125 -109 0
169 -4 -5 -150 -125 -110 0
169 -4 -5 -150 -125 -111 0
169 -4 -5 -150 -125 -112 0
169 -4 -5 -149 -96 98 -131 0
169 -4 -5 -149 -96 99 -132 0
169 -4 -5 -149 -96 100 -133 0
169 -4 -5 -149 -96 101 -134 0
169 -4 -5 -149 -96 102 -135 0
169 -4 -5 -150 -124 126 -100 0
169 -4 -5 -150 -124 127 -101 0
169 -4 -5 -150 -124 128 -102 0
169 -4 -5 -150 -124 129 -103 0
169 -4 -5 -150 -124 130 -104 0
169 -4 -5 -150 -124 131 -105 0
169 -4 -5 -150 -124 132 -106 0
169 -4 -5 -150 -124 133 -107 0
169 -4 -5 -149 -97 108 -140 0
169 -4 -5 -149 -97 109 -141 0
169 -4 -5 -149 -97 110 -142 0
169 -4 -5 -149 -97 111 -143 0
169 -4 -5 -149 -97 112 -144 0
169 -4 -5 -149 -97 113 -145 0
169 -4 -5 -150 -125 136 -113 0
169 -4 -5 -150 -125 137 -114 0
169 -4 -5 -150 -125 138 -115 0
169 -4 -5 -150 -125 139 -116 0
169 -4 -5 -150 -125 140 -117 0
169 146 23 -1 0
169 146 31 -1 0
169 146 32 -1 0
169 146 33 -1 0
169 -146 21 -1 0
169 -146 22 -1 0
169 -146 23 -1 0
169 -146 33 -1 0
169 147 50 -2 0
169 147 51 -2 0
169 147 54 -2 0
169 147 55 -2 0
169 147 56 -2 0
169 147 57 -2 0
169 147 58 -2 0
169 147 59 -2 0
169 147 60 -2 0
169 147 61 -2 0
169 -147 44 -2 0
169 -147 45 -2 0
169 -147 46 -2 0
169 -147 47 -2 0
169 -147 48 -2 0
169 -147 49 -2 0
169 -147 50 -2 0
169 -147 51 -2 0
169 -147 60 -2 0
169 -147 61 -2 0
169 148 77 -3 0
169 148 78 -3 0
169 148 79 -3 0
169 148 80 -3 0
169 148 81 -3 0
169 148 82 -3 0
169 148 83 -3 0
169 148 84 -3 0
169 148 85 -3 0
169 148 86 -3 0
169 148 87 -3 0
169 148 88 -3 0
169 148 89 -3 0
169 -148 70 -3 0
169 -148 71 -3 0
169 -148 72 -3 0
169 -148 73 -3 0
169 -148 74 -3 0
169 -148 75 -3 0
169 -148 76 -3 0
169 -148 77 -3 0
169 -148 78 -3 0
169 -148 79 -3 0
169 -148 87 -3 0
169 -148 88 -3 0
169 -148 89 -3 0
169 149 104 -4 0
169 149 105 -4 0
169 149 106 -4 0
169 149 107 -4 0
169 149 113 -4 0
169 149 114 -4 0
169 149 115 -4 0
169 149 116 -4 0
169 149 117 -4 0
169 -149 103 -4 0
169 -149 104 -4 0
169 -149 105 -4 0
169 -149 106 -4 0
169 -149 107 -4 0
169 -149 114 -4 0
169 -149 115 -4 0
169 -149 116 -4 0
169 -149 117 -4 0
169 150 131 -5 0
169 150 132 -5 0
169 150 133 -5 0
169 150 134 -5 0
169 150 135 -5 0
169 150 144 -5 0
169 150 145 -5 0
169 -150 134 -5 0
169 -150 135 -5 0
169 -150 141 -5 0
169 -150 142 -5 0
169 -150 143 -5 0
169 -150 144 -5 0
169 -150 145 -5 0
